(set-info :smt-lib-version 2.6)
(set-logic QF_UFLRA)
(set-info :source |
MathSat group

|)
(set-info :category "random")
(set-info :status sat)
(declare-fun f0_1 (Real) Real)
(declare-fun f0_2 (Real Real) Real)
(declare-fun f0_3 (Real Real Real) Real)
(declare-fun f0_4 (Real Real Real Real) Real)
(declare-fun f1_1 (Real) Real)
(declare-fun f1_2 (Real Real) Real)
(declare-fun f1_3 (Real Real Real) Real)
(declare-fun f1_4 (Real Real Real Real) Real)
(declare-fun x0 () Real)
(declare-fun x1 () Real)
(declare-fun x2 () Real)
(declare-fun x3 () Real)
(declare-fun x4 () Real)
(declare-fun x5 () Real)
(declare-fun x6 () Real)
(declare-fun x7 () Real)
(declare-fun x8 () Real)
(declare-fun x9 () Real)
(declare-fun x10 () Real)
(declare-fun x11 () Real)
(declare-fun x12 () Real)
(declare-fun x13 () Real)
(declare-fun x14 () Real)
(declare-fun x15 () Real)
(declare-fun x16 () Real)
(declare-fun x17 () Real)
(declare-fun x18 () Real)
(declare-fun x19 () Real)
(declare-fun x20 () Real)
(declare-fun x21 () Real)
(declare-fun x22 () Real)
(declare-fun x23 () Real)
(declare-fun x24 () Real)
(declare-fun x25 () Real)
(declare-fun x26 () Real)
(declare-fun x27 () Real)
(declare-fun x28 () Real)
(declare-fun x29 () Real)
(declare-fun P0 () Bool)
(declare-fun P1 () Bool)
(declare-fun P2 () Bool)
(declare-fun P3 () Bool)
(declare-fun P4 () Bool)
(declare-fun P5 () Bool)
(declare-fun P6 () Bool)
(declare-fun P7 () Bool)
(declare-fun P8 () Bool)
(declare-fun P9 () Bool)
(declare-fun P10 () Bool)
(declare-fun P11 () Bool)
(declare-fun P12 () Bool)
(declare-fun P13 () Bool)
(declare-fun P14 () Bool)
(declare-fun P15 () Bool)
(declare-fun P16 () Bool)
(declare-fun P17 () Bool)
(declare-fun P18 () Bool)
(declare-fun P19 () Bool)
(declare-fun P20 () Bool)
(declare-fun P21 () Bool)
(declare-fun P22 () Bool)
(declare-fun P23 () Bool)
(declare-fun P24 () Bool)
(declare-fun P25 () Bool)
(declare-fun P26 () Bool)
(declare-fun P27 () Bool)
(declare-fun P28 () Bool)
(declare-fun P29 () Bool)
(assert (let ((?v_11 (f0_2 x29 x25)) (?v_146 (f1_2 x25 x0)) (?v_15 (f0_1 x26)) (?v_24 (f1_2 x13 x0)) (?v_0 (f0_1 x2)) (?v_9 (- (* 9 x21) (* 28 x20))) (?v_10 (* 9 x27))) (let ((?v_5 (+ ?v_9 ?v_10)) (?v_23 (* 8 x12)) (?v_19 (f0_2 x24 x19))) (let ((?v_261 (+ (- ?v_23 (* 15 x15)) (* 4 x6))) (?v_126 (* 4 x1)) (?v_3 (f1_1 x1)) (?v_78 (f0_1 x14)) (?v_70 (f0_1 x21)) (?v_32 (- (- (* 10 x19) (* 14 ?v_11)) (* 10 x5))) (?v_65 (f1_2 ?v_146 ?v_15)) (?v_4 (+ (- (* 2 x25) (* 21 ?v_0)) (* 23 x7))) (?v_82 (f0_2 x12 x10)) (?v_17 (f1_1 x24)) (?v_128 (f0_2 x5 x3)) (?v_91 (* 13 x20)) (?v_52 (f1_1 ?v_15)) (?v_71 (f1_2 x4 x26)) (?v_64 (f1_1 ?v_24)) (?v_16 (f0_2 x9 x7)) (?v_68 (f0_1 x23)) (?v_33 (f0_1 x0))) (let ((?v_25 (f0_2 ?v_16 ?v_33)) (?v_49 (f1_1 x28)) (?v_61 (f0_1 x9)) (?v_6 (f0_2 x1 x6))) (let ((?v_1 (f1_1 ?v_6)) (?v_57 (- (+ (* 21 x25) (* 25 x26)) (* 4 x15))) (?v_22 (f0_2 x4 x18)) (?v_76 (f1_2 x19 x26)) (?v_105 (- (+ (* 11 x17) ?v_10) ?v_126)) (?v_114 (f0_1 x27)) (?v_2 (f1_2 x9 x21)) (?v_323 (f0_2 ?v_17 ?v_68)) (?v_38 (f1_1 x12))) (let ((?v_113 (f0_2 ?v_17 ?v_114)) (?v_269 (= ?v_32 x7)) (?v_257 (< (f1_2 x10 x20) 6)) (?v_232 (= ?v_24 ?v_2)) (?v_122 (< (f1_2 x22 x5) 5)) (?v_130 (= x22 ?v_38)) (?v_119 (< ?v_323 14)) (?v_51 (< x28 3)) (?v_28 (= x12 ?v_16)) (?v_306 (= ?v_261 (f1_1 x23))) (?v_100 (< x25 0)) (?v_129 (< x9 16)) (?v_36 (< ?v_2 26)) (?v_142 (< ?v_70 4)) (?v_210 (< (f1_2 x29 x26) 3)) (?v_199 (< x9 13)) (?v_295 (< ?v_68 9)) (?v_72 (= x23 ?v_52)) (?v_286 (< x23 28)) (?v_195 (< ?v_105 26)) (?v_282 (< x4 1)) (?v_62 (< x13 25)) (?v_317 (< x24 23)) (?v_218 (= x6 x16)) (?v_208 (< ?v_3 12)) (?v_233 (< x26 11)) (?v_239 (= x5 ?v_68)) (?v_123 (< ?v_82 7)) (?v_157 (< x16 23)) (?v_230 (< ?v_146 0)) (?v_182 (= (f1_1 x16) ?v_4)) (?v_178 (= x11 ?v_82)) (?v_248 (< ?v_2 22)) (?v_75 (< (f0_1 x13) 25)) (?v_93 (< ?v_1 21))) (let ((?v_235 (< ?v_113 1)) (?v_35 (= ?v_5 (f1_1 x5))) (?v_213 (< ?v_105 21)) (?v_99 (= ?v_15 x18)) (?v_156 (< x11 15)) (?v_34 (= x16 x1)) (?v_27 (< (- (- (* 14 ?v_52) (* 25 ?v_78)) (* 23 x15)) 0)) (?v_104 (< ?v_15 24)) (?v_250 (< (f0_1 ?v_11) 12)) (?v_274 (= x22 x9)) (?v_143 (< ?v_38 23)) (?v_37 (< ?v_113 27)) (?v_252 (< x26 8)) (?v_203 (< x11 0)) (?v_260 (< ?v_15 21)) (?v_322 (< ?v_113 17)) (?v_172 (not ?v_93)) (?v_196 (not P25)) (?v_187 (not P22)) (?v_318 (not P10)) (?v_58 (not P18)) (?v_44 (not P16))) (let ((?v_224 (not ?v_34)) (?v_43 (not ?v_122)) (?v_136 (not ?v_28)) (?v_217 (not ?v_37)) (?v_185 (not ?v_143)) (?v_314 (not P0)) (?v_197 (not P5)) (?v_60 (not ?v_27)) (?v_237 (not ?v_62)) (?v_243 (not P13)) (?v_303 (not P20)) (?v_135 (not ?v_178)) (?v_96 (not ?v_239)) (?v_125 (not P9)) (?v_53 (not ?v_51)) (?v_181 (not ?v_157)) (?v_202 (not (= ?v_64 ?v_65))) (?v_319 (not ?v_295)) (?v_121 (not ?v_75)) (?v_134 (not (< ?v_105 23))) (?v_262 (not P29)) (?v_124 (not P1)) (?v_313 (not P27)) (?v_117 (not P8)) (?v_116 (not P7)) (?v_200 (not P6)) (?v_236 (not ?v_100)) (?v_291 (not ?v_36)) (?v_222 (not P21)) (?v_255 (not ?v_213)) (?v_223 (not ?v_250)) (?v_277 (not P12)) (?v_162 (not ?v_119)) (?v_174 (not ?v_260)) (?v_225 (not (= ?v_15 x4))) (?v_278 (not ?v_123)) (?v_216 (not P2)) (?v_212 (not P15)) (?v_271 (not ?v_322)) (?v_220 (not ?v_230)) (?v_240 (not P24)) (?v_254 (not (= ?v_25 x14))) (?v_188 (not P11)) (?v_267 (not ?v_72)) (?v_275 (not ?v_142)) (?v_194 (not P28)) (?v_245 (not ?v_199)) (?v_272 (not P17)) (?v_311 (not ?v_203)) (?v_253 (not ?v_104)) (?v_244 (not ?v_233)) (?v_287 (not P26)) (?v_263 (not P4)) (?v_321 (not ?v_235)) (?v_281 (not ?v_248)) (?v_309 (not P14)) (?v_299 (not P19)) (?v_191 (+ (* 13 x10) (* 16 x3) ?v_23)) (?v_56 (- (- x13 (* 23 x28)) (* 16 x26)))) (let ((?v_12 (< ?v_56 15))) (let ((?v_301 (not ?v_12)) (?v_81 (+ (* 7 ?v_261) ?v_91 (* 11 (f1_2 x3 x11))))) (let ((?v_47 (f0_2 ?v_22 ?v_81)) (?v_163 (+ (* 27 x14) (* 14 x21) (* 26 x25)))) (let ((?v_77 (* 16 ?v_47)) (?v_66 (< ?v_56 5)) (?v_131 (+ (* 21 x10) (* 19 x14) (* 12 x28)))) (let ((?v_115 (= (+ (* 13 (f0_2 x22 x13)) (* 18 ?v_65) (* 12 ?v_131)) (f0_1 ?v_1)))) (let ((?v_80 (not ?v_115)) (?v_140 (= ?v_76 (- (+ (* 26 x4) ?v_77) (* 24 ?v_78)))) (?v_258 (< ?v_81 11))) (let ((?v_268 (not ?v_258)) (?v_205 (< (+ (* 29 x9) (* 3 x3) ?v_126) 29)) (?v_241 (= ?v_131 (f1_2 x1 ?v_81)))) (let ((?v_310 (not ?v_241)) (?v_249 (not ?v_140)) (?v_207 (< ?v_191 7)) (?v_288 (not ?v_66)) (?v_228 (f0_1 (- (+ (* (- 15) x4) (* 14 x12)) (* 18 x1))))) (let ((?v_283 (< ?v_228 (- 4)))) (let ((?v_85 (not ?v_283)) (?v_21 (+ (- (* (- 13) x1) (* 2 x18)) (* 15 x16)))) (let ((?v_45 (- (- (* (- 9) ?v_21) (* 12 ?v_3)) (* 13 ?v_191)))) (let ((?v_41 (f0_1 ?v_45))) (let ((?v_83 (= ?v_41 ?v_70)) (?v_304 (< ?v_2 (- 1)))) (let ((?v_111 (not ?v_304)) (?v_7 (+ (- (* (- 4) x28) (* 26 ?v_5)) (* 12 ?v_0))) (?v_42 (< (f1_2 x9 x13) (- 6))) (?v_14 (- (+ (* (- 17) x28) (* 29 ?v_17)) (* 19 ?v_4)))) (let ((?v_54 (< ?v_14 13))) (let ((?v_160 (not ?v_54)) (?v_193 (< ?v_49 (- 26)))) (let ((?v_31 (not ?v_193)) (?v_50 (< ?v_1 (- 25))) (?v_88 (< ?v_22 (- 7)))) (let ((?v_39 (not ?v_88)) (?v_8 (- (+ (* (- 11) ?v_19) (* 18 ?v_24)) (* 20 ?v_76)))) (let ((?v_101 (not (= x25 ?v_8))) (?v_204 (= (+ (* (- 20) ?v_25) (* 4 ?v_0) ?v_32) ?v_0))) (let ((?v_13 (not ?v_204)) (?v_18 (< x21 (- 15)))) (let ((?v_175 (not ?v_18)) (?v_127 (< x13 (- 25))) (?v_215 (< ?v_57 (- 5)))) (let ((?v_292 (not ?v_215)) (?v_46 (= ?v_6 ?v_7))) (let ((?v_86 (not ?v_46)) (?v_63 (< ?v_8 (- 5))) (?v_55 (< (+ ?v_9 ?v_10 (* 13 ?v_65) (* 16 ?v_11)) (- 7))) (?v_102 (< x1 (- 6)))) (let ((?v_298 (not ?v_102)) (?v_234 (< ?v_14 (- 23)))) (let ((?v_30 (not ?v_234)) (?v_97 (+ (- (* (- 6) x11) (* 14 x22)) (* 22 x13)))) (let ((?v_296 (= ?v_97 ?v_15)) (?v_171 (< (f0_1 x11) (- 18))) (?v_29 (< ?v_0 (- 27))) (?v_26 (< x7 (- 1))) (?v_20 (< ?v_19 (- 3))) (?v_59 (- (- (* 22 ?v_21) (* 8 x5)) (* 22 x29)))) (let ((?v_89 (f0_2 ?v_59 ?v_7))) (let ((?v_48 (< ?v_89 10)) (?v_110 (< ?v_47 (- 16))) (?v_40 (< ?v_64 (- 21)))) (let ((?v_164 (not ?v_40)) (?v_151 (< ?v_163 (- 3)))) (let ((?v_84 (not ?v_151)) (?v_94 (< ?v_25 (- 1))) (?v_293 (< ?v_33 (- 19)))) (let ((?v_73 (not ?v_293)) (?v_294 (< x3 (- 25)))) (let ((?v_177 (not ?v_294)) (?v_154 (< ?v_38 (- 23))) (?v_107 (< (f1_2 x13 x1) (- 10))) (?v_158 (< ?v_41 6)) (?v_209 (not ?v_42)) (?v_238 (< ?v_15 (- 14))) (?v_226 (= ?v_14 (f0_1 x4)))) (let ((?v_166 (not ?v_226)) (?v_198 (< ?v_45 (- 19)))) (let ((?v_141 (not ?v_198)) (?v_103 (< x23 (- 28))) (?v_95 (+ (* (- 8) x6) (* 2 x16) (* 29 x13)))) (let ((?v_139 (f1_2 ?v_95 ?v_7)) (?v_69 (+ (- (* (- 10) ?v_24) (* 26 x15)) (* 15 x11)))) (let ((?v_67 (= (- (+ ?v_77 (* 4 ?v_139)) (* 17 ?v_69)) ?v_3))) (let ((?v_74 (not ?v_67)) (?v_265 (< ?v_49 (- 3))) (?v_325 (< ?v_61 (- 8)))) (let ((?v_112 (not ?v_325)) (?v_79 (< x20 (- 1)))) (let ((?v_251 (not ?v_79)) (?v_320 (< ?v_14 (- 3)))) (let ((?v_98 (not ?v_320)) (?v_167 (< ?v_57 (- 22)))) (let ((?v_149 (not ?v_167)) (?v_290 (< ?v_21 7))) (let ((?v_90 (not ?v_290)) (?v_152 (< ?v_59 25)) (?v_150 (< ?v_71 (- 7))) (?v_144 (< ?v_61 (- 7))) (?v_147 (not ?v_63)) (?v_137 (< ?v_59 (- 23)))) (let ((?v_109 (not ?v_137)) (?v_153 (< ?v_45 (- 5))) (?v_259 (= ?v_69 ?v_41))) (let ((?v_169 (not ?v_259)) (?v_159 (= ?v_70 (+ (* (- 29) x24) (* 26 (f1_2 x20 x8)) (* 6 ?v_71))))) (let ((?v_180 (not ?v_159)) (?v_183 (< (f1_1 x3) (- 20)))) (let ((?v_270 (not ?v_183)) (?v_87 (< ?v_128 (- 25))) (?v_118 (< x11 (- 27))) (?v_201 (< ?v_4 (- 19)))) (let ((?v_273 (not ?v_201)) (?v_138 (- (- (* 20 ?v_89) (* 3 x5)) (* 25 ?v_49)))) (let ((?v_302 (< ?v_138 (- 27)))) (let ((?v_92 (not ?v_302)) (?v_155 (< (- (+ (* (- 27) x23) (* 23 x21)) ?v_91) (- 13))) (?v_161 (< ?v_1 (- 10))) (?v_206 (< ?v_21 23))) (let ((?v_106 (not ?v_206)) (?v_145 (< ?v_95 (- 2))) (?v_108 (< ?v_52 (- 11))) (?v_132 (= ?v_97 ?v_57))) (let ((?v_179 (not ?v_132)) (?v_184 (< ?v_59 (- 5)))) (let ((?v_285 (not ?v_184)) (?v_242 (not (< ?v_33 (- 5)))) (?v_211 (< ?v_97 2))) (let ((?v_219 (not ?v_211)) (?v_190 (not ?v_110)) (?v_120 (< ?v_114 (- 7)))) (let ((?v_148 (not ?v_120)) (?v_170 (not ?v_127)) (?v_176 (< ?v_128 (- 8))) (?v_173 (< (f1_2 x8 x16) (- 25)))) (let ((?v_168 (not ?v_173)) (?v_280 (not ?v_29)) (?v_133 (< ?v_38 (- 28)))) (let ((?v_316 (not ?v_133)) (?v_165 (< ?v_70 (- 16)))) (let ((?v_256 (not ?v_165)) (?v_315 (= ?v_138 ?v_139)) (?v_312 (not ?v_144)) (?v_266 (not ?v_150)) (?v_186 (< x24 (- 9)))) (let ((?v_227 (not ?v_186)) (?v_214 (not ?v_103)) (?v_192 (not ?v_152)) (?v_264 (not ?v_118)) (?v_284 (not ?v_155)) (?v_279 (< ?v_32 (- 21))) (?v_297 (not (< ?v_163 (- 11)))) (?v_229 (not (< x5 (- 1)))) (?v_189 (not ?v_171)) (?v_276 (not ?v_154)) (?v_307 (not ?v_94)) (?v_324 (not ?v_48)) (?v_221 (< x19 (- 24))) (?v_247 (< (- (- (* (- 28) x29) (* 23 x18)) (* 23 x10)) (- 11))) (?v_231 (< ?v_228 13))) (let ((?v_305 (not ?v_231)) (?v_246 (< (f0_2 x14 x10) (- 22)))) (let ((?v_308 (not ?v_246)) (?v_289 (< ?v_2 (- 3))) (?v_300 (not ?v_247))) (and (and (and (and (and (and (and (and (and (and (and (and (and (and (and (and (and (and (and (and (and (and (and (and (and (and (and (and (and (and (and (and (and (and (and (and (and (and (and (and (and (and (and (and (and (and (and (and (and (and (and (and (and (and (and (and (and (and (and (and (and (and (and (and (and (and (and (and (and (and (and (and (and (and (and (and (and (and (and (and (and (and (and (and (and (and (and (and (and (and (and (and (and (and (and (and (and (and (and (and (and (and (and (and (and (and (and (and (and (and (and (and (and (and (and (and (and (and (and (and (and (and (and (and (and (and (and (and (and (and (and (and (and (and (and (and (and (and (and (and (and (and (and (and (and (and (and (and (and (and (and (and (and (and (and (and (and (and (and (and (and (and (and (and (and (and (and (and (and (and (and (and (and (and (and (and (and (and (and (and (and (and (and (and (and (and (and (and (and (and (and (and (and (and (and (and (and (and (and (and (and (and (and (and (and (and (and (and (and (and (and (and (and (and (and (and (and (and (and (and (and (and (and (and (and (and (and (and (and (and (and (and (and (and (and (and (and (and (and (and (and (and (and (and (and (and (and (and (and (and (and (and (and (and (and (and (and (and (and (and (and (and (and (and (and (and (and (and (and (and (and (and (and (and (and (and (and (and (and (and (and (and (and (and (and (and (and (and (and (and (and (and (and (and (and (and (and (and (and (or (or ?v_172 P9) P22) (or (or ?v_85 P16) ?v_196)) (or (or ?v_83 ?v_111) (< ?v_7 (- 6)))) (or (or P5 (not ?v_156)) ?v_42)) (or (or ?v_160 P26) ?v_31)) (or (or ?v_50 P8) ?v_187)) (or (or ?v_36 ?v_208) ?v_39)) (or (or ?v_101 ?v_13) ?v_182)) (or (or ?v_318 ?v_175) ?v_35)) (or (or ?v_127 P21) ?v_292)) (or (or ?v_86 ?v_75) P21)) (or (or ?v_301 ?v_58) ?v_63)) (or (or P4 ?v_55) ?v_44)) (or (or (not (< ?v_1 (- 15))) ?v_12) ?v_298)) (or (or ?v_13 ?v_224) ?v_30)) (or (or ?v_296 ?v_171) ?v_43)) (or (or ?v_27 ?v_136) P18)) (or (or P16 ?v_29) (not ?v_26))) (or (or P16 ?v_217) ?v_18)) (or (or ?v_20 ?v_20) ?v_48)) (or (or ?v_110 ?v_164) ?v_185)) (or (or ?v_84 ?v_94) ?v_314)) (or (or ?v_197 P22) ?v_26)) (or (or ?v_60 ?v_237) P3)) (or (or ?v_28 ?v_252) ?v_29)) (or (or ?v_30 ?v_31) (not ?v_269))) (or (or ?v_51 ?v_73) P5)) (or (or ?v_34 (not ?v_35)) ?v_36)) (or (or ?v_37 ?v_243) ?v_177)) (or (or ?v_154 P6) ?v_99)) (or (or ?v_303 ?v_39) ?v_40)) (or (or ?v_135 ?v_203) ?v_107)) (or (or ?v_96 ?v_158) ?v_209)) (or (or ?v_43 ?v_44) (not ?v_238))) (or (or ?v_166 ?v_141) ?v_103)) (or (or ?v_46 ?v_74) ?v_48)) (or (or ?v_125 ?v_265) ?v_112)) (or (or ?v_18 ?v_18) ?v_30)) (or (or ?v_50 ?v_104) ?v_53)) (or (or ?v_251 (not (< (+ (* 26 x28) (* 14 x1) (* 26 x3)) (- 15)))) P9)) (or (or ?v_72 ?v_53) ?v_40)) (or (or ?v_54 P18) ?v_130)) (or (or (not ?v_55) ?v_129) ?v_98)) (or (or ?v_66 ?v_149) ?v_90)) (or (or ?v_58 ?v_152) ?v_60)) (or (or ?v_150 ?v_144) ?v_62)) (or (or ?v_147 ?v_60) ?v_181)) (or (or ?v_202 P20) ?v_66)) (or (or ?v_109 ?v_67) ?v_37)) (or (or (not ?v_153) ?v_319) ?v_169)) (or (or ?v_180 ?v_72) ?v_73)) (or (or ?v_74 ?v_121) ?v_134)) (or (or P16 ?v_30) ?v_80)) (or (or P23 ?v_270) ?v_140)) (or (or ?v_262 ?v_79) ?v_124)) (or (or ?v_80 ?v_268) ?v_313)) (or (or ?v_87 ?v_123) ?v_83)) (or (or ?v_84 ?v_60) ?v_119)) (or (or ?v_118 ?v_73) ?v_273)) (or (or ?v_85 ?v_117) ?v_73)) (or (or ?v_86 ?v_87) ?v_88)) (or (or ?v_58 ?v_62) ?v_92)) (or (or ?v_90 ?v_155) ?v_161)) (or (or P9 P22) ?v_12)) (or (or ?v_116 ?v_106) ?v_92)) (or (or ?v_200 P4) ?v_93)) (or (or P1 P28) ?v_62)) (or (or ?v_94 ?v_145) ?v_236)) (or (or ?v_142 ?v_74) ?v_96)) (or (or P18 ?v_37) ?v_108)) (or (or ?v_179 ?v_12) ?v_98)) (or (or ?v_291 ?v_222) ?v_285)) (or (or ?v_99 ?v_96) ?v_100)) (or (or ?v_101 (not ?v_218)) ?v_102)) (or (or ?v_103 P19) ?v_257)) (or (or ?v_104 ?v_255) ?v_31)) (or (or ?v_106 ?v_223) ?v_242)) (or (or (not ?v_286) ?v_107) P4)) (or (or ?v_108 ?v_109) ?v_219)) (or (or ?v_190 P8) ?v_111)) (or (or ?v_62 ?v_112) ?v_235)) (or (or ?v_148 ?v_115) ?v_116)) (or (or ?v_117 ?v_277) ?v_118)) (or (or ?v_162 ?v_120) ?v_39)) (or (or ?v_53 ?v_121) ?v_122)) (or (or ?v_107 ?v_174) ?v_123)) (or (or ?v_44 ?v_124) ?v_125)) (or (or ?v_205 ?v_72) ?v_170)) (or (or ?v_225 ?v_176) ?v_168)) (or (or P2 ?v_129) ?v_280)) (or (or ?v_133 ?v_278) (not ?v_130))) (or (or ?v_75 ?v_216) ?v_310)) (or (or ?v_212 ?v_132) (not (< x27 5)))) (or (or P28 ?v_316) ?v_134)) (or (or ?v_135 ?v_46) ?v_136)) (or (or ?v_256 ?v_137) ?v_315)) (or (or ?v_249 ?v_141) ?v_142)) (or (or ?v_271 ?v_140) ?v_120)) (or (or P19 ?v_143) ?v_312)) (or (or ?v_145 ?v_220) ?v_129)) (or (or ?v_147 ?v_148) ?v_149)) (or (or ?v_266 ?v_40) ?v_227)) (or (or ?v_35 ?v_137) ?v_214)) (or (or ?v_29 ?v_112) ?v_151)) (or (or ?v_192 ?v_153) ?v_240)) (or (or ?v_264 ?v_87) ?v_150)) (or (or ?v_154 P22) ?v_122)) (or (or P11 ?v_284) ?v_156)) (or (or ?v_30 ?v_157) ?v_108)) (or (or ?v_28 P10) ?v_39)) (or (or (not ?v_158) ?v_159) ?v_160)) (or (or ?v_254 ?v_161) ?v_162)) (or (or (not P3) ?v_279) ?v_297)) (or (or ?v_210 P20) ?v_164)) (or (or ?v_165 (not ?v_87)) ?v_79)) (or (or ?v_166 P1) ?v_232)) (or (or ?v_157 ?v_167) ?v_168)) (or (or ?v_188 ?v_229) ?v_267)) (or (or ?v_88 ?v_93) ?v_169)) (or (or ?v_170 ?v_189) ?v_172)) (or (or ?v_173 ?v_174) ?v_112)) (or (or ?v_275 ?v_96) ?v_50)) (or (or ?v_156 ?v_152) P7)) (or (or ?v_175 ?v_176) ?v_66)) (or (or ?v_177 ?v_178) ?v_62)) (or (or P15 ?v_179) ?v_166)) (or (or ?v_180 ?v_195) ?v_169)) (or (or (not ?v_83) ?v_233) ?v_276)) (or (or ?v_74 ?v_307) ?v_181)) (or (or ?v_182 ?v_183) ?v_184)) (or (or ?v_166 ?v_185) P11)) (or (or ?v_186 ?v_187) ?v_88)) (or (or ?v_154 ?v_188) ?v_107)) (or (or ?v_274 ?v_155) ?v_134)) (or (or ?v_189 P24) ?v_111)) (or (or ?v_194 ?v_166) ?v_190)) (or (or ?v_207 ?v_54) ?v_324)) (or (or (not ?v_221) ?v_245) ?v_192)) (or (or ?v_193 ?v_194) ?v_172)) (or (or (not ?v_317) ?v_172) ?v_39)) (or (or ?v_174 ?v_195) P3)) (or (or ?v_196 ?v_40) ?v_137)) (or (or ?v_87 ?v_197) ?v_40)) (or (or ?v_198 ?v_199) ?v_200)) (or (or ?v_272 ?v_201) P10)) (or (or ?v_202 ?v_170) ?v_311)) (or (or ?v_204 ?v_205) ?v_206)) (or (or ?v_207 ?v_74) (not ?v_208))) (or (or ?v_209 ?v_90) ?v_169)) (or (or ?v_210 ?v_211) ?v_212)) (or (or ?v_213 ?v_214) ?v_130)) (or (or ?v_215 ?v_117) ?v_203)) (or (or ?v_122 ?v_248) ?v_216)) (or (or ?v_253 ?v_108) ?v_125)) (or (or ?v_217 ?v_98) ?v_166)) (or (or ?v_86 ?v_282) ?v_157)) (or (or ?v_207 ?v_218) ?v_219)) (or (or ?v_102 ?v_220) ?v_217)) (or (or ?v_221 ?v_222) ?v_106)) (or (or ?v_223 ?v_224) ?v_222)) (or (or ?v_225 ?v_247) ?v_120)) (or (or ?v_226 ?v_227) P9)) (or (or ?v_225 ?v_231) ?v_229)) (or (or P8 P23) ?v_142)) (or (or ?v_230 ?v_190) ?v_211)) (or (or ?v_170 ?v_116) ?v_225)) (or (or ?v_305 (not ?v_232)) P14)) (or (or (not ?v_195) ?v_244) ?v_166)) (or (or ?v_287 ?v_166) ?v_246)) (or (or ?v_234 ?v_235) ?v_236)) (or (or ?v_48 ?v_237) ?v_238)) (or (or ?v_173 ?v_84) ?v_239)) (or (or ?v_240 ?v_241) (not ?v_145))) (or (or ?v_117 ?v_153) ?v_121)) (or (or ?v_242 ?v_243) ?v_244)) (or (or ?v_245 ?v_308) (not ?v_182))) (or (or ?v_203 ?v_247) ?v_168)) (or (or ?v_248 ?v_211) ?v_135)) (or (or ?v_249 ?v_75) ?v_250)) (or (or ?v_36 ?v_251) (not ?v_50))) (or (or ?v_99 ?v_50) ?v_249)) (or (or ?v_252 ?v_253) ?v_235)) (or (or ?v_254 ?v_174) ?v_255)) (or (or ?v_188 ?v_37) ?v_196)) (or (or ?v_48 ?v_256) ?v_125)) (or (or ?v_257 ?v_258) ?v_263)) (or (or ?v_99 ?v_88) ?v_72)) (or (or ?v_96 ?v_234) ?v_179)) (or (or ?v_321 ?v_58) ?v_226)) (or (or ?v_259 P12) ?v_42)) (or (or ?v_260 ?v_101) (not ?v_306))) (or (or ?v_234 ?v_26) ?v_96)) (or (or ?v_262 ?v_251) ?v_186)) (or (or P4 ?v_263) ?v_111)) (or (or ?v_133 ?v_54) ?v_264)) (or (or P16 ?v_112) ?v_129)) (or (or ?v_44 ?v_151) ?v_195)) (or (or ?v_140 ?v_160) ?v_194)) (or (or ?v_265 ?v_244) ?v_266)) (or (or (not ?v_207) ?v_30) ?v_175)) (or (or ?v_231 ?v_127) ?v_281)) (or (or ?v_42 ?v_267) ?v_109)) (or (or ?v_94 ?v_268) ?v_109)) (or (or ?v_224 ?v_269) ?v_270)) (or (or ?v_215 ?v_271) ?v_224)) (or (or ?v_28 ?v_272) ?v_219)) (or (or ?v_176 ?v_273) ?v_122)) (or (or ?v_164 ?v_274) ?v_275)) (or (or ?v_276 ?v_123) ?v_253)) (or (or ?v_288 ?v_39) ?v_277)) (or (or ?v_197 ?v_201) ?v_134)) (or (or ?v_144 ?v_203) ?v_278)) (or (or ?v_67 ?v_217) ?v_104)) (or (or (not ?v_252) ?v_87) ?v_209)) (or (or ?v_168 ?v_181) ?v_140)) (or (or ?v_93 ?v_270) ?v_226)) (or (or ?v_129 ?v_72) ?v_235)) (or (or ?v_178 ?v_279) ?v_280)) (or (or ?v_281 ?v_207) ?v_282)) (or (or ?v_241 ?v_98) (< x29 (- 27)))) (or (or ?v_289 ?v_50) P5)) (or (or ?v_122 ?v_34) ?v_192)) (or (or ?v_283 ?v_187) ?v_284)) (or (or ?v_162 ?v_285) ?v_100)) (or (or ?v_309 ?v_198) ?v_167)) (or (or P24 ?v_125) ?v_122)) (or (or ?v_145 P12) ?v_175)) (or (or P9 ?v_102) ?v_101)) (or (or ?v_286 ?v_224) ?v_287)) (or (or ?v_288 (not (< (- (+ (* (- 1) x7) (* 12 x20)) (* 3 x11)) (- 22)))) ?v_252)) (or (or ?v_44 ?v_145) ?v_232)) (or (or ?v_193 ?v_185) ?v_251)) (or (or ?v_154 ?v_273) ?v_110)) (or (or ?v_62 ?v_26) ?v_280)) (or (or ?v_289 ?v_290) ?v_249)) (or (or ?v_127 ?v_107) ?v_291)) (or (or ?v_133 ?v_187) ?v_124)) (or (or P3 ?v_274) ?v_153)) (or (or ?v_292 ?v_26) ?v_239)) (or (or ?v_151 ?v_300) ?v_293)) (or (or ?v_135 ?v_294) ?v_278)) (or (or ?v_295 (not ?v_296)) ?v_83)) (or (or ?v_297 ?v_44) ?v_299)) (or (or ?v_210 ?v_290) ?v_18)) (or (or ?v_298 ?v_299) ?v_30)) (or (or ?v_106 ?v_141) ?v_136)) (or (or P16 ?v_300) ?v_174)) (or (or ?v_85 ?v_208) ?v_211)) (or (or ?v_230 ?v_58) P17)) (or (or ?v_229 ?v_200) ?v_301)) (or (or ?v_302 ?v_303) ?v_253)) (or (or ?v_304 ?v_210) ?v_192)) (or (or ?v_268 ?v_224) ?v_85)) (or (or ?v_86 ?v_305) ?v_120)) (or (or ?v_173 P4) ?v_172)) (or (or ?v_35 ?v_205) ?v_306)) (or (or ?v_93 ?v_108) P6)) (or (or ?v_135 ?v_307) ?v_160)) (or (or ?v_168 ?v_204) ?v_202)) (or (or ?v_154 ?v_202) ?v_215)) (or (or ?v_29 (not ?v_161)) (not ?v_279))) (or (or ?v_239 P20) ?v_210)) (or (or ?v_133 ?v_174) ?v_233)) (or (or ?v_308 ?v_309) ?v_115)) (or (or ?v_310 ?v_311) ?v_115)) (or (or ?v_161 ?v_300) ?v_165)) (or (or ?v_217 ?v_207) ?v_87)) (or (or ?v_84 ?v_312) ?v_156)) (or (or P11 ?v_94) ?v_270)) (or (or ?v_136 ?v_222) ?v_300)) (or (or ?v_221 ?v_152) ?v_250)) (or (or ?v_102 ?v_229) (not ?v_205))) (or (or ?v_289 ?v_235) ?v_155)) (or (or ?v_270 ?v_309) ?v_200)) (or (or ?v_202 ?v_313) P14)) (or (or ?v_264 ?v_151) ?v_314)) (or (or ?v_101 ?v_248) ?v_315)) (or (or ?v_74 ?v_154) ?v_102)) (or (or ?v_20 ?v_256) ?v_160)) (or (or ?v_62 P14) ?v_151)) (or (or ?v_60 ?v_316) ?v_317)) (or (or ?v_234 P6) ?v_294)) (or (or ?v_18 ?v_85) ?v_292)) (or (or ?v_318 ?v_242) ?v_283)) (or (or P21 ?v_152) ?v_85)) (or (or ?v_109 ?v_317) ?v_181)) (or (or ?v_319 P27) P26)) (or (or ?v_99 ?v_320) P20)) (or (or ?v_53 ?v_157) P9)) (or (or ?v_315 ?v_287) ?v_31)) (or (or (not ?v_107) ?v_266) ?v_205)) (or (or ?v_196 ?v_320) ?v_321)) (or (or ?v_133 ?v_226) ?v_322)) (or (or (not (< ?v_323 (- 23))) ?v_74) ?v_289)) (or (or ?v_87 ?v_324) ?v_132)) (or (or ?v_167 ?v_303) ?v_313)) (or (or ?v_130 ?v_122) ?v_40)) (or (or ?v_209 ?v_325) P14)) (or (or ?v_87 ?v_53) ?v_101)) (or (or ?v_62 ?v_244) ?v_80)))))))))))))))))))))))))))))))))))))))))))))))))))))))))))))))))))))))
(check-sat)
(exit)
